p td 40 60
6 9
6 18
6 23
9 10
9 39
10 17
10 23
17 3
17 19
25 31
25 34
25 37
31 29
31 3
0 14
0 7
0 18
14 12
14 16
4 27
4 16
4 39
27 22
27 8
7 29
7 22
2 22
2 30
2 37
18 19
19 36
12 16
12 1
24 33
24 8
24 38
33 1
33 30
29 26
3 32
1 20
20 26
20 21
13 21
13 11
13 15
21 38
26 8
30 15
15 5
36 35
36 28
38 39
28 35
28 5
35 32
32 34
34 23
11 37
11 5
